rc101_3
0 95 70 71 61 89 90 68 81 56 69 88 91 79 92 64 102 80 63 82 30 28 26 53 23 24 54 25 27 29 62 57 2 16 19 52 22 21 20 18 14 15 17 83 78 84 12 13 51 50 10 8 9 7 11 65 58 103 93 60 105 75 6 1 48 45 41 40 42 43 44 49 47 46 77 59 86 101 99 98 76 72 38 37 35 33 31 32 34 36 39 55 67 100 97 96 85 0